g3 0 1 0	# problem d6n6R1R6d01d1
 6 6 1 0 1	# vars, constraints, objectives, ranges, eqns
 3 1	# nonlinear constraints, objectives
 0 0	# network constraints: nonlinear, linear
 6 6 6	# nonlinear vars in constraints, objectives, both
 0 0 0 1	# linear network variables; functions; arith, flags
 0 0 0 0 0	# discrete variables: binary, integer, nonlinear (b,c,o)
 36 6	# nonzeros in Jacobian, gradients
 0 0	# max name lengths: constraints, variables
 0 0 0 0 0	# common exprs: b,c,o,c1,o1
b
0 0.51 2.45
0 0.53 2.6
0 0.88 2.67
0 0.71 2.03
0 0.44 2.49
0 0.9 2.08
r
2 109.865
2 381.949
2 1025.31
4 48.834
2 45.323
2 41.675
C0
o54
4
o2
o2
o2
n8.62
v0
v0
v1
o2
o2
o2
n1.43
v0
v5
v5
o2
o2
o2
n1.87
v1
v1
v3
o2
o2
o2
n6.15
v3
v5
v5
C1
o54
15
o2
o2
o2
n1.23
v0
v0
v1
o2
o2
o2
n9.99
v0
v5
v5
o2
o2
o2
n4.89
v1
v1
v3
o2
o2
o2
n6.61
v3
v5
v5
o2
o2
o2
o2
n4.37
v0
v0
v1
v3
o2
o2
o2
o2
n3.67
v0
v0
v2
v2
o2
o2
o2
o2
n7.1
v0
v0
v5
v5
o2
o2
o2
o2
n9.9
v0
v1
v2
v4
o2
o2
o2
o2
n7.63
v0
v1
v2
v5
o2
o2
o2
o2
n9.43
v0
v5
v5
v5
o16
o2
o2
o2
o2
n1.58
v1
v1
v2
v2
o2
o2
o2
o2
n9.77
v1
v1
v2
v3
o2
o2
o2
o2
n0.25
v3
v3
v4
v5
o16
o2
o2
o2
o2
n6.34
v3
v3
v5
v5
o2
o2
o2
o2
n3.92
v3
v4
v4
v4
C2
o54
38
o2
o2
o2
n2.88
v0
v0
v1
o2
o2
o2
n4.97
v0
v5
v5
o16
o2
o2
o2
n0.97
v1
v1
v3
o2
o2
o2
n0.25
v3
v5
v5
o2
o2
o2
o2
n5.7
v0
v0
v1
v3
o2
o2
o2
o2
n3.16
v0
v0
v2
v2
o2
o2
o2
o2
n6.51
v0
v0
v5
v5
o2
o2
o2
o2
n3.76
v0
v1
v2
v4
o16
o2
o2
o2
o2
n8.62
v0
v1
v2
v5
o2
o2
o2
o2
n1.42
v0
v5
v5
v5
o2
o2
o2
o2
n0.06
v1
v1
v2
v2
o2
o2
o2
o2
n1.43
v1
v1
v2
v3
o2
o2
o2
o2
n3.51
v3
v3
v4
v5
o2
o2
o2
o2
n3.24
v3
v3
v5
v5
o2
o2
o2
o2
n2.94
v3
v4
v4
v4
o2
o2
o2
o2
o2
n3.17
v0
v0
v0
v1
v3
o2
o2
o2
o2
o2
n0.56
v0
v0
v0
v2
v3
o2
o2
o2
o2
o2
n9.41
v0
v0
v0
v4
v5
o2
o2
o2
o2
o2
n4.34
v0
v0
v1
v1
v1
o2
o2
o2
o2
o2
n2.1
v0
v1
v1
v3
v3
o2
o2
o2
o2
o2
n1.41
v0
v1
v2
v2
v2
o2
o2
o2
o2
o2
n6.41
v0
v2
v2
v2
v2
o2
o2
o2
o2
o2
n7.62
v0
v2
v3
v4
v5
o2
o2
o2
o2
o2
n1.18
v0
v3
v3
v3
v3
o2
o2
o2
o2
o2
n8.61
v0
v3
v4
v4
v4
o2
o2
o2
o2
o2
n1.24
v0
v4
v4
v4
v5
o2
o2
o2
o2
o2
n2.78
v1
v1
v2
v4
v4
o2
o2
o2
o2
o2
n6.01
v1
v2
v2
v2
v3
o2
o2
o2
o2
o2
n1.24
v1
v2
v2
v4
v4
o16
o2
o2
o2
o2
o2
n2.29
v1
v2
v2
v5
v5
o2
o2
o2
o2
o2
n5.33
v1
v2
v5
v5
v5
o2
o2
o2
o2
o2
n3.99
v1
v3
v3
v5
v5
o2
o2
o2
o2
o2
n6.85
v1
v3
v4
v4
v5
o2
o2
o2
o2
o2
n6.67
v2
v2
v2
v3
v3
o2
o2
o2
o2
o2
n1.3
v2
v2
v2
v4
v4
o2
o2
o2
o2
o2
n9.65
v2
v2
v3
v5
v5
o2
o2
o2
o2
o2
n9.61
v2
v3
v5
v5
v5
o16
o2
o2
o2
o2
o2
n3.59
v3
v3
v3
v3
v4
C3
n0
C4
n0
C5
n0
O0 0
o54
91
o2
o2
o2
n5.32
v0
v0
v1
o2
o2
o2
n2.81
v0
v5
v5
o16
o2
o2
o2
n2.24
v1
v1
v3
o2
o2
o2
n7.22
v3
v5
v5
o2
o2
o2
o2
n4.9
v0
v0
v1
v3
o16
o2
o2
o2
o2
n2.66
v0
v0
v2
v2
o2
o2
o2
o2
n7.58
v0
v0
v5
v5
o2
o2
o2
o2
n0.67
v0
v1
v2
v4
o2
o2
o2
o2
n0.48
v0
v1
v2
v5
o2
o2
o2
o2
n0.95
v0
v5
v5
v5
o2
o2
o2
o2
n3.78
v1
v1
v2
v2
o2
o2
o2
o2
n1.07
v1
v1
v2
v3
o2
o2
o2
o2
n7.41
v3
v3
v4
v5
o2
o2
o2
o2
n6.26
v3
v3
v5
v5
o2
o2
o2
o2
n1.6
v3
v4
v4
v4
o2
o2
o2
o2
o2
n7.1
v0
v0
v0
v1
v3
o2
o2
o2
o2
o2
n8.64
v0
v0
v0
v2
v3
o2
o2
o2
o2
o2
n7.93
v0
v0
v0
v4
v5
o2
o2
o2
o2
o2
n1.16
v0
v0
v1
v1
v1
o16
o2
o2
o2
o2
o2
n3.84
v0
v1
v1
v3
v3
o2
o2
o2
o2
o2
n7.22
v0
v1
v2
v2
v2
o2
o2
o2
o2
o2
n8.92
v0
v2
v2
v2
v2
o2
o2
o2
o2
o2
n7.54
v0
v2
v3
v4
v5
o2
o2
o2
o2
o2
n3.77
v0
v3
v3
v3
v3
o2
o2
o2
o2
o2
n5.14
v0
v3
v4
v4
v4
o2
o2
o2
o2
o2
n4.89
v0
v4
v4
v4
v5
o2
o2
o2
o2
o2
n2.75
v1
v1
v2
v4
v4
o2
o2
o2
o2
o2
n3.95
v1
v2
v2
v2
v3
o2
o2
o2
o2
o2
n8.31
v1
v2
v2
v4
v4
o2
o2
o2
o2
o2
n9.57
v1
v2
v2
v5
v5
o16
o2
o2
o2
o2
o2
n3.83
v1
v2
v5
v5
v5
o2
o2
o2
o2
o2
n9.55
v1
v3
v3
v5
v5
o16
o2
o2
o2
o2
o2
n7.91
v1
v3
v4
v4
v5
o2
o2
o2
o2
o2
n6.35
v2
v2
v2
v3
v3
o2
o2
o2
o2
o2
n7.32
v2
v2
v2
v4
v4
o2
o2
o2
o2
o2
n3.53
v2
v2
v3
v5
v5
o2
o2
o2
o2
o2
n7.88
v2
v3
v5
v5
v5
o2
o2
o2
o2
o2
n6.13
v3
v3
v3
v3
v4
o2
o2
o2
o2
o2
o2
n9.91
v0
v0
v0
v0
v0
v0
o2
o2
o2
o2
o2
o2
n2.64
v0
v0
v0
v0
v1
v1
o2
o2
o2
o2
o2
o2
n8.73
v0
v0
v0
v0
v2
v3
o2
o2
o2
o2
o2
o2
n1.45
v0
v0
v0
v0
v3
v3
o2
o2
o2
o2
o2
o2
n5.32
v0
v0
v0
v0
v4
v5
o2
o2
o2
o2
o2
o2
n9.64
v0
v0
v0
v1
v1
v4
o16
o2
o2
o2
o2
o2
o2
n7.59
v0
v0
v0
v1
v1
v5
o2
o2
o2
o2
o2
o2
n6.79
v0
v0
v0
v1
v2
v3
o2
o2
o2
o2
o2
o2
n7.52
v0
v0
v0
v4
v4
v5
o2
o2
o2
o2
o2
o2
n1.78
v0
v0
v1
v1
v1
v5
o2
o2
o2
o2
o2
o2
n4.48
v0
v0
v1
v1
v3
v4
o2
o2
o2
o2
o2
o2
n5.22
v0
v0
v1
v3
v4
v4
o2
o2
o2
o2
o2
o2
n0.09
v0
v0
v2
v2
v3
v4
o2
o2
o2
o2
o2
o2
n5.52
v0
v0
v2
v3
v3
v5
o2
o2
o2
o2
o2
o2
n4.85
v0
v0
v2
v3
v5
v5
o16
o2
o2
o2
o2
o2
o2
n1.22
v0
v0
v3
v4
v4
v4
o2
o2
o2
o2
o2
o2
n1.93
v0
v1
v1
v1
v1
v1
o2
o2
o2
o2
o2
o2
n7.53
v0
v1
v1
v1
v4
v5
o2
o2
o2
o2
o2
o2
n8.39
v0
v1
v1
v3
v3
v3
o2
o2
o2
o2
o2
o2
n9.81
v0
v1
v1
v4
v4
v5
o2
o2
o2
o2
o2
o2
n9.14
v0
v1
v2
v2
v2
v3
o2
o2
o2
o2
o2
o2
n1.88
v0
v1
v2
v4
v4
v5
o2
o2
o2
o2
o2
o2
n4.03
v0
v1
v3
v4
v4
v5
o2
o2
o2
o2
o2
o2
n1.87
v0
v2
v3
v3
v4
v4
o16
o2
o2
o2
o2
o2
o2
n3.21
v0
v2
v3
v4
v4
v5
o16
o2
o2
o2
o2
o2
o2
n3.53
v0
v3
v3
v3
v5
v5
o16
o2
o2
o2
o2
o2
o2
n1.27
v0
v4
v5
v5
v5
v5
o2
o2
o2
o2
o2
o2
n5.76
v1
v1
v1
v1
v3
v3
o2
o2
o2
o2
o2
o2
n5.39
v1
v1
v1
v1
v4
v5
o2
o2
o2
o2
o2
o2
n8.09
v1
v1
v1
v2
v2
v2
o2
o2
o2
o2
o2
o2
n7.71
v1
v1
v1
v2
v2
v4
o2
o2
o2
o2
o2
o2
n5.16
v1
v1
v1
v2
v3
v4
o16
o2
o2
o2
o2
o2
o2
n7.43
v1
v1
v1
v3
v3
v4
o2
o2
o2
o2
o2
o2
n7.74
v1
v1
v2
v3
v5
v5
o16
o2
o2
o2
o2
o2
o2
n2.8
v1
v2
v2
v2
v2
v2
o2
o2
o2
o2
o2
o2
n3.22
v1
v2
v2
v2
v2
v4
o2
o2
o2
o2
o2
o2
n8.41
v1
v2
v2
v3
v3
v3
o16
o2
o2
o2
o2
o2
o2
n3.49
v1
v2
v3
v3
v3
v4
o2
o2
o2
o2
o2
o2
n7.95
v1
v2
v3
v3
v4
v5
o2
o2
o2
o2
o2
o2
n2.81
v1
v2
v3
v3
v5
v5
o2
o2
o2
o2
o2
o2
n7.97
v1
v2
v3
v5
v5
v5
o2
o2
o2
o2
o2
o2
n3.65
v1
v3
v3
v3
v5
v5
o2
o2
o2
o2
o2
o2
n2.75
v1
v3
v4
v4
v4
v4
o2
o2
o2
o2
o2
o2
n3.23
v1
v3
v4
v4
v5
v5
o16
o2
o2
o2
o2
o2
o2
n5.69
v2
v2
v2
v2
v2
v2
o2
o2
o2
o2
o2
o2
n8.58
v2
v2
v2
v2
v4
v4
o2
o2
o2
o2
o2
o2
n7.55
v2
v2
v2
v3
v3
v3
o2
o2
o2
o2
o2
o2
n3
v2
v2
v4
v4
v5
v5
o2
o2
o2
o2
o2
o2
n6.76
v2
v4
v4
v4
v4
v4
o2
o2
o2
o2
o2
o2
n1.62
v3
v3
v4
v4
v4
v5
o2
o2
o2
o2
o2
o2
n2.23
v3
v4
v4
v4
v4
v4
o2
o2
o2
o2
o2
o2
n8.97
v3
v4
v4
v5
v5
v5
o2
o2
o2
o2
o2
o2
n3.89
v3
v5
v5
v5
v5
v5
k5
6
12
18
24
30
J0 6
0 0.84
1 1.26
2 9.18
3 4.97
4 7.09
5 9.35
J1 6
0 8.44
1 -3.53
2 1
3 9.92
4 7.01
5 3.62
J2 6
0 3.84
1 6.31
2 9.68
3 8.36
4 9.91
5 3.86
J3 6
0 4.96
1 5.48
2 8.98
3 8.5
4 0.05
5 3.53
J4 6
0 8.45
1 2.9
2 1.38
3 7.41
4 4.65
5 5.95
J5 6
0 9.62
1 5.5
2 0.42
3 4.07
4 8.04
5 0.49
G0 6
0 7.33
1 6.3
2 7.68
3 -6.97
4 6.86
5 3.7
